(set-logic NIA)

(set-option :produce-models true)
(set-option :incremental true)

; Deklarace promennych pro vstupy
; ===============================

; Parametry
(declare-fun A () Int)
(declare-fun B () Int)
(declare-fun C () Int)
(declare-fun D () Int)
(declare-fun E () Int)

;;;;;;;;;;;;;;;;;;;;;;;;;;;;;;;;;;;;;
;;;;;;;; START OF SOLUTION ;;;;;;;;;;
;;;;;;;;;;;;;;;;;;;;;;;;;;;;;;;;;;;;;

(declare-const x Int)
(declare-const y Int)
(declare-const z Int)

(assert (> D 0))
(assert (> E 0))

(assert (= x (* A B 2)))

(assert (ite (< x E) (= y (+ x (* 5 B))) (= y (- x C))))

(assert (ite (< (+ y 2) D) (= z (- (* x A) (* y B))) (= z (+ (* x B) (* y A)))))

(assert (< z (+ E D)))

(assert (not (exists ((K Int) (L Int) (m Int) (n Int)) ;K = D, L = E, y = m, z = n
        (and (> K 0) (> L 0) 
        (ite (< x L) (= m (+ x (* 5 B))) (= m (- x C))) 
        (ite (< (+ m 2) K) (= n (- (* x A) (* m B))) (= n (+ (* x B) (* m A)))) 
        (< n (+ K L))
        (< (+ K L) (+ E D))
        ))))

(check-sat)
(get-model)

;;;;;;;;;;;;;;;;;;;;;;;;;;;;;;;;;;;;;
;;;;;;;;; END OF SOLUTION ;;;;;;;;;;;
;;;;;;;;;;;;;;;;;;;;;;;;;;;;;;;;;;;;;

; Testovaci vstupy
; ================

(echo "Test 1 - vstup A=1, B=1, C=3")
(echo "a) Ocekavany vystup je sat a D+E se rovna 2")
(check-sat-assuming (
  (= A 1) (= B 1) (= C 3)
))
(get-value (D E (+ D E)))
(echo "b) Neexistuje jine reseni nez 2, ocekavany vystup je unsat")
(check-sat-assuming (
  (= A 1) (= B 1) (= C 3) (distinct (+ D E) 2)
))


(echo "Test 2 - vstup A=5, B=2, C=5")
(echo "a) Ocekavany vystup je sat a D+E se rovna 54")
(check-sat-assuming (
  (= A 5) (= B 2) (= C 5)
))
(get-value (D E (+ D E)))
(echo "b) Neexistuje jine reseni nez 54, ocekavany vystup je unsat")
(check-sat-assuming (
  (= A 5) (= B 2) (= C 5) (distinct (+ D E) 54)
))

(echo "Test 3 - vstup A=100, B=15, C=1")
(echo "a) Ocekavany vystup je sat a D+E se rovna 253876")
(check-sat-assuming (
  (= A 100) (= B 15) (= C 1)
))
(get-value (D E (+ D E)))
(echo "b) Neexistuje jine reseni nez 253876, ocekavany vystup je unsat")
(check-sat-assuming (
  (= A 100) (= B 15) (= C 1) (distinct (+ D E) 253876)
))

(echo "Test 4 - vstup A=5, B=5, C=3")
(echo "a) Ocekavany vystup je sat a D+E se rovna 51")
(check-sat-assuming (
  (= A 5) (= B 5) (= C 3)
))
(get-value (D E (+ D E)))
(echo "b) Neexistuje jine reseni nez 51, ocekavany vystup je unsat")
(check-sat-assuming (
  (= A 5) (= B 5) (= C 3) (distinct (+ D E) 51)
))

(echo "Test 5 - vstup A=2, B=1, C=2")
(echo "a) Ocekavany vystup je sat a D+E se rovna 7")
(check-sat-assuming (
  (= A 2) (= B 1) (= C 2)
))
(get-value (D E (+ D E)))
(echo "b) Neexistuje jine reseni nez 7, ocekavany vystup je unsat")
(check-sat-assuming (
  (= A 2) (= B 1) (= C 2) (distinct (+ D E) 7)
))